(set-logic NIA)

(synth-fun f ((x Int) (y Int)) Int
  ((I Int))
  (
    (I Int (
            x
            y
            (Constant Int)
            (+ I I)
            (- I I)
            (* I I)
            (div I I)
            (mod I I)
    ))
  )
)

;; constraints
(constraint (= (f 1 1) 0))
(constraint (= (f 2 2) 0))
(constraint (= (f 4 3) 1))
(constraint (= (f 5 8) 5))
(constraint (= (f 16 8) 0))
(constraint (= (f 13 32) 13))

(check-synth)